NAME: R12-280618-030505.tsp
TYPE: TSP
COMMENT: Random data
DIMENSION: 12
EDGE_WEIGHT_TYPE: EXPLICIT
EDGE_WEIGHT_FORMAT: FULL_MATRIX
DISPLAY_DATA_TYPE: NO_DISPLAY
EDGE_WEIGHT_SECTION
 0 26 33 60 37 78  8 48 12 18 94 49 
61  0 77 10 48 58 75 40 34 71 71 90 
40 78  0 20 29 93 53 91 41 98 74 95 
 3 45 20  0 48 98 38 61 21 13 60 32 
13 41 22 17  0 18 78 42 65 78 33 88 
36 93 81 17 49  0 14 95 21 77 96 74 
66 74 65 27  9 77  0  1 72 49 58 30 
 7 65 78  7 76 35 12  0 99 33 96 61 
15  9 27 67 80 89 47 26  0 92 83 36 
38 74 48 51 91 68 64 64  6  0 84 29 
 5 85 16 38 41 37 60  8 78 63  0 78 
 4 58 56 99 42 96 11 25 23 66 47  0 
EOF